NAME          BLANK   
ROWS
 N  OBJROW
 L  R0000000
COLUMNS
    C0000000  OBJROW     -748.         R0000000  499.        
    C0000001  OBJROW     -79.          R0000000  615.        
    C0000002  OBJROW     -667.         R0000000  545.        
    C0000003  OBJROW     -30.          R0000000  602.        
    C0000004  OBJROW     -962.         R0000000  737.        
    C0000005  OBJROW     -67.          R0000000  312.        
    C0000006  OBJROW     -798.         R0000000  569.        
    C0000007  OBJROW     -975.         R0000000  833.        
    C0000008  OBJROW     -601.         R0000000  82.         
    C0000009  OBJROW     -288.         R0000000  679.        
RHS
    RHS       R0000000  15551.      
BOUNDS
 BV BOUND     C0000000  1.          
 BV BOUND     C0000001  1.          
 BV BOUND     C0000002  1.          
 BV BOUND     C0000003  1.          
 BV BOUND     C0000004  1.          
 BV BOUND     C0000005  1.          
 BV BOUND     C0000006  1.          
 BV BOUND     C0000007  1.          
 BV BOUND     C0000008  1.          
 BV BOUND     C0000009  1.          
ENDATA
